NAME : PR107B.51686.tour
COMMENT : Cost = 0_51686
COMMENT : Found by LKH [Keld Helsgaun] Sun Sep 17 16:52:42 2017
TYPE : TOUR
DIMENSION : 107
TOUR_SECTION
1
3
5
9
14
17
18
20
24
21
22
25
28
27
32
35
36
38
99
98
95
58
89
59
86
84
82
81
60
79
61
76
77
74
62
73
70
63
66
64
67
65
68
69
72
71
75
78
80
83
85
88
87
90
93
92
91
94
57
96
97
100
103
102
101
56
104
105
107
106
55
48
43
45
46
49
52
51
54
53
50
47
44
41
42
39
40
37
34
33
31
30
29
26
23
19
16
15
13
12
11
8
10
7
2
6
4
-1
EOF
